c Sudoku solution
p cnf 729 0
129 0
217 0
228 0
243 0
262 0
332 0
366 0
374 0
459 0
349 0
518 0
564 0
577 0
599 0
631 0
619 0
642 0
653 0
779 0
289 0
816 0
847 0
872 0
894 0
923 0
934 0
839 0
738 0
727 0
969 0
437 0
667 0
114 0
254 0
744 0
945 0
991 0
987 0
912 0
752 0
956 0
978 0
271 0
533 0
415 0
555 0
313 0
321 0
711 0
825 0
763 0
883 0
165 0
136 0
235 0
173 0
296 0
476 0
675 0
698 0
684 0
424 0
522 0
626 0
546 0
581 0
482 0
493 0
188 0
192 0
397 0
385 0
157 0
141 0
358 0
448 0
461 0
851 0
868 0
786 0
795 0
